max: 420l1 + 420l2 + 420l3 + 360m1 + 360m2 + 360m3 + 300s1 + 300s2 + 300s3;

l1 + m1 + s1 <= 750;
l2 + m2 + s2 <= 900;
l3 + m3 + s3 <= 450;

20 l1 + 15 m1 + 12 s1 <= 13000;
20 l2 + 15 m2 + 12 s2 <= 12000;
20 l3 + 15 m3 + 12 s3 <= 5000;

l1 + l2 + l3 <= 900;
m1 + m2 + m3 <= 1200;
s1 + s2 + s3 <= 750;

900 l1 + 900 m1 + 900 s1 - 750 l2 - 750 m2 - 750 s2 = 0;
l2 + m2 + s2 - 2 l3 - 2 m3 - 2 s3 = 0;

